c A SAT instance generated from a 3-CNF formula that had 30 clauses and 10 variables
p cnf 10 30
-7 10 4 0
9 -8 -10 0
-7 6 10 0
-4 -10 -1 0
1 6 -9 0
10 -1 -7 0
-1 -6 -2 0
1 -4 6 0
4 6 -9 0
3 6 -8 0
-4 -1 8 0
-2 -10 8 0
5 10 2 0
-4 -7 -9 0
-1 8 6 0
2 -5 -7 0
-9 7 3 0
6 -4 5 0
-1 6 -5 0
7 6 -4 0
-6 5 4 0
9 -6 -4 0
1 -5 -7 0
1 10 -8 0
9 -6 8 0
2 -6 5 0
9 8 4 0
-6 8 -1 0
-9 7 -5 0
-7 9 -8 0
%
0

59 39 32 87 71 7 100 80 63 73
